2269350
0,191,61,116,161,204,150,27,144,155,43,18,110,44,167,114,84,78,142,10,197,75,40,105,221,218,201,56,137,225,47,46,198,15,2,206,146,117,66,38,35,195,160,100,86,77,36,80,95,115,16,143,178,227,216,11,3,41,22,162,126,73,139,42,177,25,21,19,62,48,31,4,207,174,52,53,55,98,104,189,65,23,17,215,148,179,120,1,79,123,135,159,205,72,151,180,173,194,192,121,119,96,94,83,59,29,14,12,67,106,74,182,228,71,153,217,187,172,124,112,50,97,190,176,226,136,158,70,30,69,85,118,166,24,125,7,188,184,113,130,200,209,6,39,49,54,93,165,183,214,88,82,134,156,208,109,224,45,133,222,9,81,211,199,196,213,163,219,212,57,58,60,64,68,171,147,181,28,13,164,193,90,210,223,37,202,185,169,141,89,108,20,152,157,76,91,99,127,140,131,229,103,32,87,128,149,170,145,186,102,51,138,220,92,203,122,175,63,5,8,34,107,26,101,33,129,168,111,154,132,0